webassembly/ejemplos_dzn/folder4_json_21.dzn
TERM = { '.', 'local_1', 's(0)', 'local_0', 's(1)'};
null = '.';
s = 4;
n = 8;
ndeps = 0;
max_registers_sz = 4;
NR = 1;
registers = [|'local_1', 's(1)'|];
dependencies = [| |];
GET_ENUM = { GET1, GET2, GET3, GET4, GET5};
SET_ENUM = { SET1, SET2, SET3, SET4, SET5};
TEE_ENUM = { TEE1, TEE2, TEE3, TEE4, TEE5};
N = 2;
OP = { 'call[function_index(0)]_1', 'local.get_0' };
in_ops = [0, 0 ];
out_ops = [2, 1 ];
in1 = ['.', '.' ];
in2 = ['.', '.' ];
in3 = ['.', '.' ];
out1 = ['s(1)', 'local_0' ];
out2 = ['s(0)', '.' ];
out3 = ['.', '.' ];
comm = [false, false ];
gas = [1, 1 ];
sz = [1, 1 ];
stor = [true, false ];
lb = [ 1, 1 ];
ub = [ 4, 4 ];
startstack = [ null, null, null, null, null, null, null, null ];
endstack = [ 's(1)', 's(0)', 'local_0', null, null, null, null, null ];
